VACCINE = Vaccine(1..4);
m = 24;
age = [ANCIENT, BABY, ADULT, ADULT, BABY, CHILD, YOUTH, AGED, SENIOR, YOUTH, BABY, ADULT, YOUTH, SENIOR, YOUTH, ADULT, ANCIENT, BABY, ADULT, AGED, ANCIENT, ANCIENT, ANCIENT, YOUTH];
gender = [FEMALE, MALE, MALE, OTHER, FEMALE, FEMALE, FEMALE, OTHER, FEMALE, OTHER, MALE, OTHER, MALE, OTHER, OTHER, FEMALE, FEMALE, OTHER, FEMALE, FEMALE, OTHER, MALE, OTHER, OTHER];
health = [POOR, GOOD, POOR, POOR, GOOD, COMPROMISED, GOOD, GOOD, POOR, COMPROMISED, COMPROMISED, GOOD, COMPROMISED, COMPROMISED, POOR, POOR, POOR, GOOD, POOR, POOR, GOOD, POOR, COMPROMISED, COMPROMISED];
exposure = [LOW, HIGH, LOW, LOW, AVERAGE, HIGH, AVERAGE, HIGH, LOW, LOW, HIGH, AVERAGE, EXTREME, HIGH, EXTREME, AVERAGE, LOW, LOW, AVERAGE, HIGH, LOW, EXTREME, LOW, AVERAGE];
size = [11, 13, 11, 10, 11, 11, 15, 13, 12, 15, 11, 14, 14, 13, 13, 12, 15, 14, 15, 12, 11, 14, 15, 14];
minsize = 10;
age_group_min = [0, 0, 1, 0, 0, 0, 0];
age_group_max = [11, 13, 24, 12, 17, 24, 9];
max_people_diff = 171;
max_share_vaccines = 4;
health_information = {9, 19, 21};
exposure_information = {2, 13, 18, 24};